v1 = 5;
v2 = 5;
vertexWeights = [-45, -45, -45, -45, -45, -45, -90, -90, -90, -90, -90, -45, -90, -90, -90, -39.319206502675, -90, -45, -90, -90, -35.4400902933387, -90, -90, -45, -90, -90, -90, -90, -90, -45, -90, -90, -59.16924876994806, -90, -90];
edgeWeights = [| 0, -7.5, 0, 0, 0, 0, 0, -7.5, 0, 0, 0, 0, 0, -7.5, 0, 0, 0, 0, 0, -7.5, 0, 0, 0, 0, 0, -7.5, 0, 0, 0, 0, 0, -7.5, 0, 0, 0
| -7.5, 0, -7.5, 0, 0, 0, -7.5, 0, -7.5, 0, 0, 0, -7.5, 0, -7.5, 0, 0, 0, -7.5, 0, -7.5, 0, 0, 0, -7.5, 0, -7.5, 0, 0, 0, -7.5, 0, -7.5, 0, 0
| 0, -7.5, 0, 0, -7.5, 0, 0, -7.5, 0, 0, -7.5, 0, 0, -7.5, 0, 0, -7.5, 0, 0, -7.5, 0, 0, -7.5, 0, 0, -7.5, 0, 0, -7.5, 0, 0, -7.5, 0, 0, -7.5
| 0, 0, 0, 0, 0, 0, 0, 0, 0, 0, 0, 0, 0, 0, 0, 0, 0, 0, 0, 0, 0, 0, 0, 0, 0, 0, 0, 0, 0, 0, 0, 0, 0, 0, 0
| 0, 0, -7.5, 0, 0, 0, 0, 0, -7.5, 0, 0, 0, 0, 0, -7.5, 0, 0, 0, 0, 0, -7.5, 0, 0, 0, 0, 0, -7.5, 0, 0, 0, 0, 0, -7.5, 0, 0
| 0, 0, 0, 0, 0, 0, 0, 0, 0, 0, 0, 0, 0, 0, 0, 0, 0, 0, 0, 0, 0, 0, 0, 0, 0, 0, 0, 0, 0, -15.0, -15.0, -15.0, -15.0, -15.0, -15.0
| 0, -7.5, -0.0, -0.0, -0.0, 0, 0, 0, 0, 0, 0, -0.0, 0, -7.5, 0, 0, 0, -0.0, 0, -7.5, 0, 0, 0, -0.0, 0, -7.5, 0, 0, 0, -15.0, 0, -7.5, -0.0, -0.0, -15.0
| -7.5, 0, -7.5, -0.0, -0.0, 0, 0, 0, 0, 0, 0, -0.0, -7.5, 0, -7.5, 0, 0, -0.0, -7.5, 0, -7.5, 0, 0, -0.0, -7.5, 0, -7.5, 0, 0, -15.0, -7.5, 0, -7.5, -0.0, -15.0
| -0.0, -7.5, 0, -0.0, -7.5, 0, 0, 0, 0, 0, 0, -0.0, 0, -7.5, 0, 0, -7.5, -0.0, 0, -7.5, 0, 0, -7.5, -0.0, 0, -7.5, 0, 0, -7.5, -15.0, -0.0, -7.5, 0, -0.0, -7.5
| -0.0, -0.0, -0.0, 0, -0.0, 0, 0, 0, 0, 0, 0, -0.0, 0, 0, 0, 0, 0, -0.0, 0, 0, 0, 0, 0, -0.0, 0, 0, 0, 0, 0, -15.0, -0.0, -0.0, -0.0, 0, -15.0
| -0.0, -0.0, -7.5, -0.0, 0, 0, 0, 0, 0, 0, 0, -0.0, 0, 0, -7.5, 0, 0, -0.0, 0, 0, -7.5, 0, 0, -0.0, 0, 0, -7.5, 0, 0, -15.0, -0.0, -0.0, -7.5, -0.0, 0
| 0, 0, 0, 0, 0, 0, 0, 0, 0, 0, 0, 0, 0, 0, 0, 0, 0, 0, 0, 0, 0, 0, 0, 0, 0, 0, 0, 0, 0, 0, 0, 0, 0, 0, 0
| 0, -7.5, -0.0, -0.0, -0.0, -0.0, 0, -7.5, 0, 0, 0, 0, 0, 0, 0, 0, 0, -0.0, 0, -7.5, 0, 0, 0, -0.0, 0, -7.5, 0, 0, 0, -0.0, 0, -7.5, 0, 0, 0
| -7.5, 0, -7.5, -0.0, -0.0, -0.0, -7.5, 0, -7.5, 0, 0, 0, 0, 0, 0, 0, 0, -0.0, -7.5, 0, -7.5, 0, 0, -0.0, -7.5, 0, -7.5, 0, 0, -0.0, -7.5, 0, -7.5, 0, 0
| -0.0, -7.5, 0, -0.0, -7.5, -0.0, 0, -7.5, 0, 0, -7.5, 0, 0, 0, 0, 0, 0, -0.0, 0, -7.5, 0, 0, -7.5, -0.0, 0, -7.5, 0, 0, -7.5, -0.0, 0, -7.5, 0, 0, -7.5
| -0.0, -0.0, -0.0, 0, -0.0, -0.0, 0, 0, 0, 0, 0, 0, 0, 0, 0, 0, 0, -0.0, 0, 0, 0, 0, 0, -0.0, 0, 0, 0, 0, 0, -0.0, 0, 0, 0, 0, 0
| -0.0, -0.0, -7.5, -0.0, 0, -0.0, 0, 0, -7.5, 0, 0, 0, 0, 0, 0, 0, 0, -0.0, 0, 0, -7.5, 0, 0, -0.0, 0, 0, -7.5, 0, 0, -0.0, 0, 0, -7.5, 0, 0
| 0, 0, 0, 0, 0, 0, 0, 0, 0, 0, 0, 0, 0, 0, 0, 0, 0, 0, 0, 0, 0, 0, 0, -15.0, -15.0, -15.0, -15.0, -15.0, -15.0, 0, 0, 0, 0, 0, 0
| 0, -7.5, -0.0, -0.0, -0.0, -0.0, 0, -7.5, 0, 0, 0, -0.0, 0, -7.5, 0, 0, 0, 0, 0, 0, 0, 0, 0, -15.0, 0, -7.5, -0.0, -15.0, -0.0, -0.0, 0, -7.5, 0, 0, 0
| -7.5, 0, -7.5, -0.0, -0.0, -0.0, -7.5, 0, -7.5, 0, 0, -0.0, -7.5, 0, -7.5, 0, 0, 0, 0, 0, 0, 0, 0, -15.0, -7.5, 0, -7.5, -15.0, -0.0, -0.0, -7.5, 0, -7.5, 0, 0
| -0.0, -7.5, 0, -0.0, -7.5, -0.0, 0, -7.5, 0, 0, -7.5, -0.0, 0, -7.5, 0, 0, -7.5, 0, 0, 0, 0, 0, 0, -15.0, -0.0, -7.5, 0, -15.0, -7.5, -0.0, 0, -7.5, 0, 0, -7.5
| -0.0, -0.0, -0.0, 0, -0.0, -0.0, 0, 0, 0, 0, 0, -0.0, 0, 0, 0, 0, 0, 0, 0, 0, 0, 0, 0, -15.0, -0.0, -0.0, -0.0, 0, -0.0, -0.0, 0, 0, 0, 0, 0
| -0.0, -0.0, -7.5, -0.0, 0, -0.0, 0, 0, -7.5, 0, 0, -0.0, 0, 0, -7.5, 0, 0, 0, 0, 0, 0, 0, 0, -15.0, -0.0, -0.0, -7.5, -15.0, 0, -0.0, 0, 0, -7.5, 0, 0
| 0, 0, 0, 0, 0, 0, 0, 0, 0, 0, 0, 0, 0, 0, 0, 0, 0, -15.0, -15.0, -15.0, -15.0, -15.0, -15.0, 0, 0, 0, 0, 0, 0, 0, 0, 0, 0, 0, 0
| 0, -7.5, -0.0, -0.0, -0.0, -0.0, 0, -7.5, 0, 0, 0, -0.0, 0, -7.5, 0, 0, 0, -15.0, 0, -7.5, -15.0, -0.0, -0.0, 0, 0, 0, 0, 0, 0, -0.0, 0, -7.5, 0, 0, 0
| -7.5, 0, -7.5, -0.0, -0.0, -0.0, -7.5, 0, -7.5, 0, 0, -0.0, -7.5, 0, -7.5, 0, 0, -15.0, -7.5, 0, -7.5, -0.0, -0.0, 0, 0, 0, 0, 0, 0, -0.0, -7.5, 0, -7.5, 0, 0
| -0.0, -7.5, 0, -0.0, -7.5, -0.0, 0, -7.5, 0, 0, -7.5, -0.0, 0, -7.5, 0, 0, -7.5, -15.0, -0.0, -7.5, 0, -0.0, -7.5, 0, 0, 0, 0, 0, 0, -0.0, 0, -7.5, 0, 0, -7.5
| -0.0, -0.0, -0.0, 0, -0.0, -0.0, 0, 0, 0, 0, 0, -0.0, 0, 0, 0, 0, 0, -15.0, -0.0, -0.0, -15.0, 0, -0.0, 0, 0, 0, 0, 0, 0, -0.0, 0, 0, 0, 0, 0
| -0.0, -0.0, -7.5, -0.0, 0, -0.0, 0, 0, -7.5, 0, 0, -0.0, 0, 0, -7.5, 0, 0, -15.0, -0.0, -0.0, -7.5, -0.0, 0, 0, 0, 0, 0, 0, 0, -0.0, 0, 0, -7.5, 0, 0
| 0, 0, 0, 0, 0, -15.0, -15.0, -15.0, -15.0, -15.0, -15.0, 0, 0, 0, 0, 0, 0, 0, 0, 0, 0, 0, 0, 0, 0, 0, 0, 0, 0, 0, 0, 0, 0, 0, 0
| 0, -7.5, -0.0, -0.0, -0.0, -15.0, 0, -7.5, -0.0, -0.0, -0.0, -0.0, 0, -7.5, 0, 0, 0, -0.0, 0, -7.5, 0, 0, 0, -0.0, 0, -7.5, 0, 0, 0, 0, 0, 0, 0, 0, 0
| -7.5, 0, -7.5, -0.0, -0.0, -15.0, -7.5, 0, -7.5, -0.0, -0.0, -0.0, -7.5, 0, -7.5, 0, 0, -0.0, -7.5, 0, -7.5, 0, 0, -0.0, -7.5, 0, -7.5, 0, 0, 0, 0, 0, 0, 0, 0
| -0.0, -7.5, 0, -0.0, -7.5, -15.0, -15.0, -7.5, 0, -0.0, -7.5, -0.0, 0, -7.5, 0, 0, -7.5, -0.0, 0, -7.5, 0, 0, -7.5, -0.0, 0, -7.5, 0, 0, -7.5, 0, 0, 0, 0, 0, 0
| -0.0, -0.0, -0.0, 0, -0.0, -15.0, -15.0, -0.0, -0.0, 0, -0.0, -0.0, 0, 0, 0, 0, 0, -0.0, 0, 0, 0, 0, 0, -0.0, 0, 0, 0, 0, 0, 0, 0, 0, 0, 0, 0
| -0.0, -0.0, -7.5, -0.0, 0, -15.0, -15.0, -0.0, -7.5, -0.0, 0, -0.0, 0, 0, -7.5, 0, 0, -0.0, 0, 0, -7.5, 0, 0, -0.0, 0, 0, -7.5, 0, 0, 0, 0, 0, 0, 0, 0 |];
adjacent = [| 0, 1, 1, 1, 1, 1, 0, 1, 1, 1, 1, 1, 0, 1, 1, 1, 1, 1, 0, 1, 1, 1, 1, 1, 0, 1, 1, 1, 1, 1, 0, 1, 1, 1, 1
| 1, 0, 1, 1, 1, 1, 1, 0, 1, 1, 1, 1, 1, 0, 1, 1, 1, 1, 1, 0, 1, 1, 1, 1, 1, 0, 1, 1, 1, 1, 1, 0, 1, 1, 1
| 1, 1, 0, 1, 1, 1, 1, 1, 0, 1, 1, 1, 1, 1, 0, 1, 1, 1, 1, 1, 0, 1, 1, 1, 1, 1, 0, 1, 1, 1, 1, 1, 0, 1, 1
| 1, 1, 1, 0, 1, 1, 1, 1, 1, 0, 1, 1, 1, 1, 1, 0, 1, 1, 1, 1, 1, 0, 1, 1, 1, 1, 1, 0, 1, 1, 1, 1, 1, 0, 1
| 1, 1, 1, 1, 0, 1, 1, 1, 1, 1, 0, 1, 1, 1, 1, 1, 0, 1, 1, 1, 1, 1, 0, 1, 1, 1, 1, 1, 0, 1, 1, 1, 1, 1, 0
| 1, 1, 1, 1, 1, 0, 0, 0, 0, 0, 0, 1, 1, 1, 1, 1, 1, 1, 1, 1, 1, 1, 1, 1, 1, 1, 1, 1, 1, 1, 1, 1, 1, 1, 1
| 0, 1, 1, 1, 1, 0, 0, 0, 0, 0, 0, 1, 0, 1, 1, 1, 1, 1, 0, 1, 1, 1, 1, 1, 0, 1, 1, 1, 1, 1, 0, 1, 1, 1, 1
| 1, 0, 1, 1, 1, 0, 0, 0, 0, 0, 0, 1, 1, 0, 1, 1, 1, 1, 1, 0, 1, 1, 1, 1, 1, 0, 1, 1, 1, 1, 1, 0, 1, 1, 1
| 1, 1, 0, 1, 1, 0, 0, 0, 0, 0, 0, 1, 1, 1, 0, 1, 1, 1, 1, 1, 0, 1, 1, 1, 1, 1, 0, 1, 1, 1, 1, 1, 0, 1, 1
| 1, 1, 1, 0, 1, 0, 0, 0, 0, 0, 0, 1, 1, 1, 1, 0, 1, 1, 1, 1, 1, 0, 1, 1, 1, 1, 1, 0, 1, 1, 1, 1, 1, 0, 1
| 1, 1, 1, 1, 0, 0, 0, 0, 0, 0, 0, 1, 1, 1, 1, 1, 0, 1, 1, 1, 1, 1, 0, 1, 1, 1, 1, 1, 0, 1, 1, 1, 1, 1, 0
| 1, 1, 1, 1, 1, 1, 1, 1, 1, 1, 1, 0, 0, 0, 0, 0, 0, 1, 1, 1, 1, 1, 1, 1, 1, 1, 1, 1, 1, 1, 1, 1, 1, 1, 1
| 0, 1, 1, 1, 1, 1, 0, 1, 1, 1, 1, 0, 0, 0, 0, 0, 0, 1, 0, 1, 1, 1, 1, 1, 0, 1, 1, 1, 1, 1, 0, 1, 1, 1, 1
| 1, 0, 1, 1, 1, 1, 1, 0, 1, 1, 1, 0, 0, 0, 0, 0, 0, 1, 1, 0, 1, 1, 1, 1, 1, 0, 1, 1, 1, 1, 1, 0, 1, 1, 1
| 1, 1, 0, 1, 1, 1, 1, 1, 0, 1, 1, 0, 0, 0, 0, 0, 0, 1, 1, 1, 0, 1, 1, 1, 1, 1, 0, 1, 1, 1, 1, 1, 0, 1, 1
| 1, 1, 1, 0, 1, 1, 1, 1, 1, 0, 1, 0, 0, 0, 0, 0, 0, 1, 1, 1, 1, 0, 1, 1, 1, 1, 1, 0, 1, 1, 1, 1, 1, 0, 1
| 1, 1, 1, 1, 0, 1, 1, 1, 1, 1, 0, 0, 0, 0, 0, 0, 0, 1, 1, 1, 1, 1, 0, 1, 1, 1, 1, 1, 0, 1, 1, 1, 1, 1, 0
| 1, 1, 1, 1, 1, 1, 1, 1, 1, 1, 1, 1, 1, 1, 1, 1, 1, 0, 0, 0, 0, 0, 0, 1, 1, 1, 1, 1, 1, 1, 1, 1, 1, 1, 1
| 0, 1, 1, 1, 1, 1, 0, 1, 1, 1, 1, 1, 0, 1, 1, 1, 1, 0, 0, 0, 0, 0, 0, 1, 0, 1, 1, 1, 1, 1, 0, 1, 1, 1, 1
| 1, 0, 1, 1, 1, 1, 1, 0, 1, 1, 1, 1, 1, 0, 1, 1, 1, 0, 0, 0, 0, 0, 0, 1, 1, 0, 1, 1, 1, 1, 1, 0, 1, 1, 1
| 1, 1, 0, 1, 1, 1, 1, 1, 0, 1, 1, 1, 1, 1, 0, 1, 1, 0, 0, 0, 0, 0, 0, 1, 1, 1, 0, 1, 1, 1, 1, 1, 0, 1, 1
| 1, 1, 1, 0, 1, 1, 1, 1, 1, 0, 1, 1, 1, 1, 1, 0, 1, 0, 0, 0, 0, 0, 0, 1, 1, 1, 1, 0, 1, 1, 1, 1, 1, 0, 1
| 1, 1, 1, 1, 0, 1, 1, 1, 1, 1, 0, 1, 1, 1, 1, 1, 0, 0, 0, 0, 0, 0, 0, 1, 1, 1, 1, 1, 0, 1, 1, 1, 1, 1, 0
| 1, 1, 1, 1, 1, 1, 1, 1, 1, 1, 1, 1, 1, 1, 1, 1, 1, 1, 1, 1, 1, 1, 1, 0, 0, 0, 0, 0, 0, 1, 1, 1, 1, 1, 1
| 0, 1, 1, 1, 1, 1, 0, 1, 1, 1, 1, 1, 0, 1, 1, 1, 1, 1, 0, 1, 1, 1, 1, 0, 0, 0, 0, 0, 0, 1, 0, 1, 1, 1, 1
| 1, 0, 1, 1, 1, 1, 1, 0, 1, 1, 1, 1, 1, 0, 1, 1, 1, 1, 1, 0, 1, 1, 1, 0, 0, 0, 0, 0, 0, 1, 1, 0, 1, 1, 1
| 1, 1, 0, 1, 1, 1, 1, 1, 0, 1, 1, 1, 1, 1, 0, 1, 1, 1, 1, 1, 0, 1, 1, 0, 0, 0, 0, 0, 0, 1, 1, 1, 0, 1, 1
| 1, 1, 1, 0, 1, 1, 1, 1, 1, 0, 1, 1, 1, 1, 1, 0, 1, 1, 1, 1, 1, 0, 1, 0, 0, 0, 0, 0, 0, 1, 1, 1, 1, 0, 1
| 1, 1, 1, 1, 0, 1, 1, 1, 1, 1, 0, 1, 1, 1, 1, 1, 0, 1, 1, 1, 1, 1, 0, 0, 0, 0, 0, 0, 0, 1, 1, 1, 1, 1, 0
| 1, 1, 1, 1, 1, 1, 1, 1, 1, 1, 1, 1, 1, 1, 1, 1, 1, 1, 1, 1, 1, 1, 1, 1, 1, 1, 1, 1, 1, 0, 0, 0, 0, 0, 0
| 0, 1, 1, 1, 1, 1, 0, 1, 1, 1, 1, 1, 0, 1, 1, 1, 1, 1, 0, 1, 1, 1, 1, 1, 0, 1, 1, 1, 1, 0, 0, 0, 0, 0, 0
| 1, 0, 1, 1, 1, 1, 1, 0, 1, 1, 1, 1, 1, 0, 1, 1, 1, 1, 1, 0, 1, 1, 1, 1, 1, 0, 1, 1, 1, 0, 0, 0, 0, 0, 0
| 1, 1, 0, 1, 1, 1, 1, 1, 0, 1, 1, 1, 1, 1, 0, 1, 1, 1, 1, 1, 0, 1, 1, 1, 1, 1, 0, 1, 1, 0, 0, 0, 0, 0, 0
| 1, 1, 1, 0, 1, 1, 1, 1, 1, 0, 1, 1, 1, 1, 1, 0, 1, 1, 1, 1, 1, 0, 1, 1, 1, 1, 1, 0, 1, 0, 0, 0, 0, 0, 0
| 1, 1, 1, 1, 0, 1, 1, 1, 1, 1, 0, 1, 1, 1, 1, 1, 0, 1, 1, 1, 1, 1, 0, 1, 1, 1, 1, 1, 0, 0, 0, 0, 0, 0, 0 |];
